n_res = 4;
rc = [ 20, 22, 22, 23 ];
n_tasks = 120;
d = [ 10, 5, 4, 6, 2, 2, 5, 5, 4, 8, 9, 5, 2, 4, 10, 6, 10, 1, 5, 10, 4, 2, 10, 1, 5, 10, 10, 10, 10, 8, 10, 1, 1, 2, 3, 9, 6, 10, 3, 8, 8, 7, 3, 1, 3, 9, 2, 5, 3, 10, 5, 6, 6, 8, 1, 9, 3, 2, 10, 5, 2, 2, 1, 3, 4, 7, 8, 5, 4, 8, 3, 10, 6, 2, 6, 9, 1, 4, 8, 4, 7, 9, 1, 6, 3, 3, 9, 3, 6, 8, 2, 5, 3, 7, 10, 2, 9, 1, 4, 5, 6, 1, 4, 6, 2, 4, 4, 5, 4, 6, 1, 10, 4, 10, 8, 8, 4, 4, 2, 9 ];
rr = [| 0, 5, 9, 1, 0, 2, 9, 0, 2, 0, 3, 6, 0, 8, 0, 9, 0, 3, 4, 2, 0, 5, 1, 5, 6, 6, 1, 3, 5, 8, 1, 2, 3, 10, 1, 0, 9, 0, 9, 4, 9, 1, 9, 3, 0, 0, 6, 9, 4, 1, 9, 4, 1, 9, 3, 0, 2, 7, 0, 0, 6, 7, 7, 0, 0, 0, 0, 0, 0, 0, 8, 4, 5, 4, 7, 0, 9, 0, 1, 10, 4, 4, 5, 8, 4, 2, 1, 6, 0, 10, 0, 8, 10, 9, 0, 0, 2, 0, 4, 9, 4, 1, 8, 8, 8, 6, 0, 6, 7, 4, 5, 10, 8, 0, 7, 0, 5, 2, 2, 3
      | 8, 7, 0, 0, 2, 1, 5, 9, 4, 6, 4, 0, 7, 0, 3, 0, 0, 4, 0, 1, 0, 5, 10, 6, 10, 0, 8, 2, 9, 3, 7, 10, 1, 3, 3, 0, 4, 8, 4, 6, 10, 2, 7, 5, 8, 4, 6, 0, 9, 3, 8, 0, 7, 0, 8, 2, 6, 0, 6, 0, 0, 3, 2, 4, 0, 0, 6, 0, 0, 1, 0, 8, 3, 9, 4, 5, 7, 3, 7, 4, 4, 3, 4, 5, 3, 0, 8, 0, 10, 7, 7, 7, 1, 9, 0, 0, 0, 0, 7, 9, 0, 4, 0, 7, 1, 8, 0, 2, 10, 0, 0, 8, 6, 3, 8, 7, 1, 6, 9, 7
      | 8, 6, 7, 2, 4, 4, 8, 2, 9, 7, 2, 10, 10, 8, 1, 6, 3, 3, 8, 0, 0, 2, 1, 0, 8, 8, 4, 0, 3, 5, 3, 1, 10, 0, 3, 4, 2, 0, 0, 6, 4, 3, 1, 7, 3, 4, 9, 0, 7, 4, 1, 0, 7, 6, 9, 2, 10, 9, 10, 8, 2, 0, 0, 7, 1, 8, 9, 6, 5, 8, 10, 0, 0, 8, 0, 0, 0, 8, 9, 7, 7, 10, 2, 4, 4, 9, 3, 8, 2, 6, 6, 0, 6, 0, 9, 1, 0, 8, 2, 0, 0, 1, 0, 1, 1, 10, 1, 5, 0, 3, 1, 0, 6, 10, 0, 9, 0, 1, 4, 4
      | 9, 7, 5, 4, 1, 1, 7, 0, 0, 10, 4, 9, 7, 5, 0, 0, 4, 9, 1, 0, 10, 2, 7, 9, 1, 1, 5, 6, 9, 6, 0, 8, 0, 3, 9, 6, 2, 7, 10, 0, 7, 7, 8, 0, 0, 10, 0, 9, 5, 2, 10, 8, 8, 3, 3, 8, 3, 1, 10, 8, 5, 0, 3, 8, 0, 4, 9, 4, 8, 0, 5, 0, 4, 8, 1, 1, 0, 0, 2, 3, 10, 0, 9, 0, 1, 4, 5, 0, 0, 0, 10, 3, 8, 5, 7, 0, 0, 9, 0, 7, 5, 0, 0, 0, 7, 8, 3, 7, 10, 0, 6, 8, 9, 1, 4, 10, 0, 3, 3, 7 |];
suc = [ { 4, 12, 67 },
       { 6, 7, 25 },
       { 5, 13, 95 },
       { 9, 21, 40 },
       { 15, 45, 99 },
       { 8, 10, 68 },
       { 11, 17, 19 },
       { 14, 16, 29 },
       { 23, 26, 90 },
       { 71, 85 },
       { 33, 63, 72 },
       { 54, 64 },
       { 22, 27, 37 },
       { 20, 87, 95 },
       { 18, 47, 88 },
       { 31, 46, 51 },
       { 35, 38, 56 },
       { 31, 36, 53 },
       { 26, 52, 65 },
       { 59 },
       { 28, 34 },
       { 24, 44, 106 },
       { 32, 46, 89 },
       { 30, 36, 39 },
       { 74, 75, 104 },
       { 41 },
       { 66, 83, 120 },
       { 52 },
       { 34, 73, 82 },
       { 61, 97 },
       { 54, 57, 62 },
       { 55, 59, 87 },
       { 50, 55, 65 },
       { 53, 84 },
       { 48, 71, 95 },
       { 56, 77 },
       { 43, 49, 93 },
       { 54, 57, 98 },
       { 42, 82, 105 },
       { 58, 62, 96 },
       { 58, 81 },
       { 67, 73, 107 },
       { 80, 96 },
       { 56, 89, 110 },
       { 48, 59, 108 },
       { 69, 74, 118 },
       { 52, 77 },
       { 55, 76, 85 },
       { 58, 86, 112 },
       { 61, 68, 74 },
       { 60, 64 },
       { 53, 72, 81 },
       { 70, 91, 98 },
       { 63 },
       { 57, 92 },
       { 81, 94, 114 },
       { 70, 78 },
       { 69, 71, 76 },
       { 65, 75, 76 },
       { 70, 75, 116 },
       { 62, 64 },
       { 100 },
       { 93, 100 },
       { 86, 92, 103 },
       { 78, 83, 85 },
       { 67, 91 },
       { 88, 90, 97 },
       { 69 },
       { 73, 101 },
       { 86, 110 },
       { 87, 113 },
       { 79 },
       { 80, 99 },
       { 80 },
       { 88, 105 },
       { 92, 115 },
       { 78, 79, 103 },
       { 84 },
       { 82, 89, 97 },
       { 119 },
       { 111, 112 },
       { 83, 90 },
       { 84, 98 },
       { 91, 102 },
       { 93, 102 },
       { 114 },
       { 109, 116 },
       { 102 },
       { 108 },
       { 94 },
       { 94, 96 },
       { 116 },
       { 103, 105, 106 },
       { 104, 109 },
       { 99, 106, 107 },
       { 100 },
       { 108 },
       { 101, 113 },
       { 115 },
       { 101 },
       { 107 },
       { 111 },
       { 104 },
       { 117 },
       { 109, 110 },
       { 113, 114 },
       { 119 },
       { 112 },
       { 111 },
       { 117 },
       { 117 },
       { 118 },
       { 118 },
       { 115 },
       { 120 },
       { 120 },
       { 119 },
       {  },
       {  },
       {  } ];
